c FILE /home/rafael/Documents/HappySet/MIHS/inputs/happygen/output/graph_scale_free_k10_p0.5_v100_20241127_083920.txt
c SOURCE This is a scale-free graph formed for the happy graph colouring problem.
c DESCRIPTION It was generated using the problem generator of Rhyd Lewis
c
c GRAPH STATS
c Seed                             = -1765867817
c Number of Nodes                  = 100
c Number of colours k              = 10
c Number of pre-assignments        = 50
c Number of links per new node     = 5
c Density                          = 0.0979798
c 
c The degrees of nodes 1 to 100, respectively, are as follows 
c [38, 32, 32, 24, 24, 23, 22, 21, 21, 20, 19, 19, 19, 17, 16, 16, 15, 15, 14, 12, 12, 12, 11, 11, 11, 11, 
c  10, 10, 10, 10, 10, 10, 9, 9, 9, 9, 9, 9, 8, 8, 8, 8, 8, 8, 8, 7, 7, 7, 7, 7, 7, 
c  7, 7, 7, 7, 6, 6, 6, 6, 6, 6, 6, 6, 6, 6, 6, 6, 6, 6, 6, 6, 6, 6, 5, 5, 5, 
c  5, 5, 5, 5, 5, 5, 5, 5, 5, 5, 5, 5, 5, 5, 5, 5, 5, 5, 5, 5, 5, 5, 5, 5] 
c  
p edge 100 485 10
e 1 2
e 1 3
e 1 4
e 1 5
e 1 6
e 1 7
e 1 8
e 1 10
e 1 11
e 1 12
e 1 13
e 1 15
e 1 16
e 1 17
e 1 18
e 1 21
e 1 25
e 1 26
e 1 29
e 1 33
e 1 34
e 1 39
e 1 41
e 1 48
e 1 53
e 1 55
e 1 57
e 1 61
e 1 62
e 1 65
e 1 72
e 1 74
e 1 77
e 1 82
e 1 83
e 1 97
e 1 98
e 1 100
e 2 3
e 2 4
e 2 5
e 2 6
e 2 7
e 2 8
e 2 10
e 2 11
e 2 12
e 2 13
e 2 15
e 2 17
e 2 19
e 2 20
e 2 21
e 2 22
e 2 28
e 2 33
e 2 39
e 2 44
e 2 50
e 2 53
e 2 56
e 2 57
e 2 69
e 2 70
e 2 78
e 2 88
e 2 90
e 2 92
e 2 94
e 3 4
e 3 5
e 3 7
e 3 9
e 3 10
e 3 12
e 3 14
e 3 15
e 3 16
e 3 22
e 3 23
e 3 29
e 3 30
e 3 31
e 3 37
e 3 40
e 3 43
e 3 46
e 3 49
e 3 50
e 3 51
e 3 56
e 3 58
e 3 64
e 3 73
e 3 85
e 3 86
e 3 92
e 3 93
e 3 94
e 4 5
e 4 7
e 4 8
e 4 11
e 4 13
e 4 15
e 4 20
e 4 21
e 4 25
e 4 28
e 4 29
e 4 42
e 4 46
e 4 59
e 4 60
e 4 62
e 4 63
e 4 68
e 4 85
e 4 89
e 4 99
e 5 7
e 5 8
e 5 9
e 5 10
e 5 14
e 5 20
e 5 21
e 5 26
e 5 34
e 5 36
e 5 37
e 5 39
e 5 46
e 5 54
e 5 56
e 5 59
e 5 65
e 5 70
e 5 71
e 5 98
e 6 7
e 6 11
e 6 15
e 6 17
e 6 18
e 6 21
e 6 25
e 6 26
e 6 32
e 6 34
e 6 35
e 6 44
e 6 45
e 6 48
e 6 51
e 6 61
e 6 63
e 6 75
e 6 87
e 6 90
e 6 97
e 7 8
e 7 11
e 7 12
e 7 13
e 7 18
e 7 19
e 7 29
e 7 31
e 7 39
e 7 41
e 7 57
e 7 66
e 7 73
e 7 76
e 7 78
e 7 87
e 8 9
e 8 11
e 8 17
e 8 20
e 8 22
e 8 28
e 8 33
e 8 34
e 8 68
e 8 70
e 8 73
e 8 77
e 8 79
e 8 80
e 8 95
e 8 96
e 9 12
e 9 15
e 9 19
e 9 23
e 9 24
e 9 31
e 9 34
e 9 35
e 9 41
e 9 45
e 9 53
e 9 56
e 9 58
e 9 68
e 9 86
e 9 87
e 9 97
e 9 99
e 10 13
e 10 18
e 10 25
e 10 27
e 10 30
e 10 39
e 10 41
e 10 43
e 10 50
e 10 55
e 10 60
e 10 61
e 10 66
e 10 70
e 10 74
e 10 100
e 11 12
e 11 14
e 11 16
e 11 23
e 11 26
e 11 27
e 11 29
e 11 32
e 11 35
e 11 37
e 11 41
e 11 58
e 11 69
e 12 13
e 12 16
e 12 23
e 12 27
e 12 33
e 12 36
e 12 42
e 12 43
e 12 49
e 12 52
e 12 57
e 12 65
e 12 67
e 13 15
e 13 17
e 13 20
e 13 24
e 13 45
e 13 47
e 13 49
e 13 54
e 13 63
e 13 67
e 13 85
e 13 89
e 13 99
e 14 17
e 14 22
e 14 23
e 14 30
e 14 36
e 14 46
e 14 48
e 14 52
e 14 54
e 14 63
e 14 71
e 14 82
e 14 85
e 14 91
e 15 27
e 15 33
e 15 49
e 15 56
e 15 57
e 15 59
e 15 66
e 15 78
e 15 82
e 16 26
e 16 28
e 16 30
e 16 39
e 16 46
e 16 50
e 16 52
e 16 59
e 16 64
e 16 79
e 16 84
e 16 88
e 17 18
e 17 24
e 17 50
e 17 63
e 17 69
e 17 73
e 17 78
e 17 80
e 17 83
e 18 24
e 18 31
e 18 48
e 18 53
e 18 58
e 18 72
e 18 79
e 18 82
e 18 97
e 18 99
e 19 20
e 19 21
e 19 28
e 19 37
e 19 44
e 19 47
e 19 61
e 19 68
e 19 71
e 19 81
e 19 84
e 20 31
e 20 43
e 20 44
e 20 47
e 20 64
e 20 74
e 21 38
e 21 40
e 21 71
e 21 72
e 21 77
e 21 93
e 22 28
e 22 38
e 22 45
e 22 73
e 22 77
e 22 94
e 22 95
e 22 97
e 23 27
e 23 33
e 23 38
e 23 40
e 23 70
e 23 76
e 24 34
e 24 38
e 24 47
e 24 48
e 24 51
e 24 72
e 24 74
e 25 33
e 25 35
e 25 47
e 25 53
e 25 82
e 25 84
e 25 96
e 26 52
e 26 54
e 26 66
e 26 68
e 26 76
e 26 89
e 27 40
e 27 55
e 27 75
e 27 92
e 27 93
e 28 37
e 28 51
e 28 55
e 28 75
e 29 32
e 29 52
e 29 59
e 29 74
e 29 89
e 30 35
e 30 51
e 30 57
e 30 60
e 30 76
e 30 81
e 31 42
e 31 62
e 31 90
e 31 95
e 31 98
e 32 40
e 32 49
e 32 78
e 32 81
e 32 84
e 32 95
e 32 98
e 33 75
e 33 92
e 34 42
e 34 61
e 34 91
e 35 42
e 35 43
e 35 87
e 35 89
e 36 45
e 36 48
e 36 79
e 36 88
e 36 92
e 36 94
e 37 80
e 37 83
e 37 91
e 37 100
e 38 42
e 38 55
e 38 64
e 38 71
e 38 80
e 39 40
e 39 49
e 40 54
e 40 91
e 41 67
e 41 79
e 41 86
e 42 65
e 42 81
e 43 66
e 43 86
e 43 87
e 44 52
e 44 60
e 44 75
e 44 95
e 45 51
e 45 62
e 45 88
e 46 69
e 46 96
e 47 72
e 47 76
e 48 96
e 49 90
e 50 58
e 50 99
e 51 60
e 52 64
e 53 67
e 53 69
e 54 84
e 54 85
e 55 88
e 55 93
e 56 80
e 58 96
e 59 62
e 60 77
e 61 90
e 62 67
e 63 65
e 64 83
e 65 81
e 66 100
e 67 83
e 68 94
e 69 93
e 70 91
e 71 86
e 72 98
e 73 100
n 6 2
n 9 2
n 13 1
n 21 2
n 22 2
n 28 2
n 33 4
n 34 2
n 36 2
n 38 2
n 39 8
n 41 2
n 46 3
n 48 2
n 50 7
n 51 2
n 52 10
n 55 2
n 56 2
n 57 9
n 59 9
n 60 2
n 61 2
n 62 9
n 65 5
n 66 4
n 68 2
n 69 3
n 70 7
n 71 2
n 74 9
n 76 5
n 77 2
n 78 2
n 79 2
n 80 2
n 81 5
n 82 3
n 83 6
n 85 1
n 86 2
n 87 2
n 88 2
n 89 1
n 90 2
n 94 2
n 95 2
n 97 2
n 98 4
n 100 4
